NAME : kroA100-C-3-1-a__learnable_bias_same_priority_ls20__26161.tour
COMMENT : Length = 26161.000
COMMENT : Generated by evaluate_ctspd.py for learnable_bias_same_priority_ls20
TYPE : TOUR
DIMENSION : 100
TOUR_SECTION
92
88
16
94
22
70
66
65
4
75
19
53
79
18
24
38
99
36
84
10
72
21
74
59
17
15
11
32
91
47
90
49
6
63
1
93
28
69
73
50
44
64
40
54
2
82
95
13
76
33
37
5
68
85
39
96
78
52
30
48
14
100
71
41
3
43
46
29
34
83
55
12
20
27
86
35
62
60
45
98
23
77
57
7
9
87
51
25
81
61
58
67
8
97
26
56
80
31
89
42
-1
EOF
